p edge 42 87
e 1 23
e 1 36
e 2 8
e 2 33
e 2 41
e 3 13
e 3 16
e 3 18
e 3 22
e 4 22
e 4 23
e 4 38
e 4 39
e 5 7
e 5 11
e 5 15
e 5 24
e 5 31
e 6 26
e 6 27
e 7 18
e 7 27
e 7 29
e 7 30
e 9 20
e 9 23
e 9 31
e 10 11
e 10 31
e 10 38
e 10 39
e 11 18
e 11 25
e 11 39
e 12 15
e 12 16
e 12 19
e 12 25
e 12 27
e 13 22
e 13 31
e 13 35
e 13 36
e 13 39
e 14 19
e 14 34
e 14 38
e 14 41
e 15 34
e 15 39
e 16 17
e 16 20
e 16 41
e 17 18
e 17 32
e 17 41
e 18 27
e 18 38
e 19 25
e 19 42
e 20 23
e 20 38
e 21 26
e 21 34
e 23 24
e 24 26
e 24 33
e 25 26
e 25 28
e 26 35
e 27 38
e 28 30
e 29 39
e 30 38
e 30 41
e 31 38
e 32 37
e 32 41
e 32 42
e 33 39
e 33 40
e 35 39
e 35 42
e 36 37
e 36 38
e 36 39
e 41 42
